Route #1: 1 27 6 16 25 4 30 1
Route #2: 1 14 31 21 9 8 1
Route #3: 1 7 37 2 18 24 22 19 35 28 1
Route #4: 1 39 13 38 32 15 3 20 34 36 1
Route #5: 1 33 23 11 17 5 26 1
Route #6: 1 29 10 12 1
cost 1059
